50 8
521 634
233 206
904 453
538 390
436 509
456 634
496 215
627 444
947 499
330 375
302 607
558 161
132 320
855 385
390 300
206 197
236 751
638 614
492 829
164 600
790 328
304 675
798 210
561 669
300 445
427 683
341 625
477 156
726 247
287 88
922 625
678 79
192 338
394 797
458 294
187 701
121 371
722 480
423 584
495 505
752 465
833 552
210 126
213 673
913 404
282 344
277 300
224 468
542 278
354 502
